Problem:    PLI_AssegnamentoLineare
Rows:       21
Columns:    100 (100 integer, 100 binary)
Non-zeros:  300
Status:     INTEGER OPTIMAL
Objective:  z = 191 (MINimum)

   No.   Row name        Activity     Lower bound   Upper bound
------ ------------    ------------- ------------- -------------
     1 mansione[1]                 1             1             = 
     2 mansione[2]                 1             1             = 
     3 mansione[3]                 1             1             = 
     4 mansione[4]                 1             1             = 
     5 mansione[5]                 1             1             = 
     6 mansione[6]                 1             1             = 
     7 mansione[7]                 1             1             = 
     8 mansione[8]                 1             1             = 
     9 mansione[9]                 1             1             = 
    10 mansione[10]                1             1             = 
    11 persona[1]                  1             1             = 
    12 persona[2]                  1             1             = 
    13 persona[3]                  1             1             = 
    14 persona[4]                  1             1             = 
    15 persona[5]                  1             1             = 
    16 persona[6]                  1             1             = 
    17 persona[7]                  1             1             = 
    18 persona[8]                  1             1             = 
    19 persona[9]                  1             1             = 
    20 persona[10]                 1             1             = 
    21 z                         191                             

   No. Column name       Activity     Lower bound   Upper bound
------ ------------    ------------- ------------- -------------
     1 x[1,1]       *              0             0             1 
     2 x[1,2]       *              0             0             1 
     3 x[1,3]       *              0             0             1 
     4 x[1,4]       *              0             0             1 
     5 x[1,5]       *              0             0             1 
     6 x[1,6]       *              0             0             1 
     7 x[1,7]       *              0             0             1 
     8 x[1,8]       *              1             0             1 
     9 x[1,9]       *              0             0             1 
    10 x[1,10]      *              0             0             1 
    11 x[2,1]       *              0             0             1 
    12 x[2,2]       *              0             0             1 
    13 x[2,3]       *              0             0             1 
    14 x[2,4]       *              0             0             1 
    15 x[2,5]       *              0             0             1 
    16 x[2,6]       *              0             0             1 
    17 x[2,7]       *              0             0             1 
    18 x[2,8]       *              0             0             1 
    19 x[2,9]       *              0             0             1 
    20 x[2,10]      *              1             0             1 
    21 x[3,1]       *              0             0             1 
    22 x[3,2]       *              0             0             1 
    23 x[3,3]       *              0             0             1 
    24 x[3,4]       *              0             0             1 
    25 x[3,5]       *              0             0             1 
    26 x[3,6]       *              0             0             1 
    27 x[3,7]       *              0             0             1 
    28 x[3,8]       *              0             0             1 
    29 x[3,9]       *              1             0             1 
    30 x[3,10]      *              0             0             1 
    31 x[4,1]       *              0             0             1 
    32 x[4,2]       *              0             0             1 
    33 x[4,3]       *              0             0             1 
    34 x[4,4]       *              0             0             1 
    35 x[4,5]       *              1             0             1 
    36 x[4,6]       *              0             0             1 
    37 x[4,7]       *              0             0             1 
    38 x[4,8]       *              0             0             1 
    39 x[4,9]       *              0             0             1 
    40 x[4,10]      *              0             0             1 
    41 x[5,1]       *              0             0             1 
    42 x[5,2]       *              0             0             1 
    43 x[5,3]       *              1             0             1 
    44 x[5,4]       *              0             0             1 
    45 x[5,5]       *              0             0             1 
    46 x[5,6]       *              0             0             1 
    47 x[5,7]       *              0             0             1 
    48 x[5,8]       *              0             0             1 
    49 x[5,9]       *              0             0             1 
    50 x[5,10]      *              0             0             1 
    51 x[6,1]       *              0             0             1 
    52 x[6,2]       *              0             0             1 
    53 x[6,3]       *              0             0             1 
    54 x[6,4]       *              0             0             1 
    55 x[6,5]       *              0             0             1 
    56 x[6,6]       *              0             0             1 
    57 x[6,7]       *              1             0             1 
    58 x[6,8]       *              0             0             1 
    59 x[6,9]       *              0             0             1 
    60 x[6,10]      *              0             0             1 
    61 x[7,1]       *              0             0             1 
    62 x[7,2]       *              0             0             1 
    63 x[7,3]       *              0             0             1 
    64 x[7,4]       *              1             0             1 
    65 x[7,5]       *              0             0             1 
    66 x[7,6]       *              0             0             1 
    67 x[7,7]       *              0             0             1 
    68 x[7,8]       *              0             0             1 
    69 x[7,9]       *              0             0             1 
    70 x[7,10]      *              0             0             1 
    71 x[8,1]       *              0             0             1 
    72 x[8,2]       *              0             0             1 
    73 x[8,3]       *              0             0             1 
    74 x[8,4]       *              0             0             1 
    75 x[8,5]       *              0             0             1 
    76 x[8,6]       *              1             0             1 
    77 x[8,7]       *              0             0             1 
    78 x[8,8]       *              0             0             1 
    79 x[8,9]       *              0             0             1 
    80 x[8,10]      *              0             0             1 
    81 x[9,1]       *              0             0             1 
    82 x[9,2]       *              1             0             1 
    83 x[9,3]       *              0             0             1 
    84 x[9,4]       *              0             0             1 
    85 x[9,5]       *              0             0             1 
    86 x[9,6]       *              0             0             1 
    87 x[9,7]       *              0             0             1 
    88 x[9,8]       *              0             0             1 
    89 x[9,9]       *              0             0             1 
    90 x[9,10]      *              0             0             1 
    91 x[10,1]      *              1             0             1 
    92 x[10,2]      *              0             0             1 
    93 x[10,3]      *              0             0             1 
    94 x[10,4]      *              0             0             1 
    95 x[10,5]      *              0             0             1 
    96 x[10,6]      *              0             0             1 
    97 x[10,7]      *              0             0             1 
    98 x[10,8]      *              0             0             1 
    99 x[10,9]      *              0             0             1 
   100 x[10,10]     *              0             0             1 

Integer feasibility conditions:

KKT.PE: max.abs.err = 0.00e+000 on row 0
        max.rel.err = 0.00e+000 on row 0
        High quality

KKT.PB: max.abs.err = 0.00e+000 on row 0
        max.rel.err = 0.00e+000 on row 0
        High quality

End of output
